data;

set A := 535050 126277 796762 252175 820978 178461 310203 142372 936720 25180 929223 969247 560670 969690 408260 874413 128001 301797 312578 246035 220741 310665 745501 250800 855267 569801 430073 741566 555836 34596 504773 114576 851484 351699 190779 819219 593594 832903 344411 597966 163892 220653 260277 61219 634133 363307 74014 881166 200593 504610 77175 320227 830789 967275 527403 927249 40761 585372 104494 405987;
param T := 15000000;

end;
